Route #1: 31 18 26 2 66 47 33
Route #2: 41 65 37 32 51 10 27 43 16
Route #3: 23 8 59 24 29 38
Route #4: 7 19 35 49 1 36 39
Route #5: 53 42 44 40 34 6 64
Route #6: 60 3 57 30 61 62
Route #7: 46 4 14 50 11 20 17
Route #8: 9 48 63 25 21 15 13
Route #9: 12 45 52 22 54 55 56 58 28
Route #10: 5
Cost 1062